c description: Random 3-CNF over 14 variables and 28 clauses
p cnf 14 28
-8 -11 13 0
-7 11 -13 0
8 -10 -13 0
-5 -13 -14 0
-8 12 13 0
-5 -6 10 0
-2 -6 11 0
1 5 7 0
-1 -3 11 0
2 -7 13 0
3 -7 8 0
-7 -8 10 0
-1 -2 10 0
2 7 -13 0
-9 -11 -12 0
4 -11 -12 0
8 11 14 0
1 12 13 0
9 10 12 0
-3 5 -14 0
2 3 12 0
-7 -9 11 0
1 -6 8 0
6 -8 -9 0
7 -9 -14 0
2 8 14 0
-3 -5 11 0
3 10 -14 0